1 1733 10
2 1568 10
3 1523 10
5 1473 9
6 1467 10
15 1466 10
16 1453 10
17 1440 10
24 1439 10
26 1421 10
32 1400 10
51 1391 9
64 1386 10
98 1378 9
176 1334 10



1 1862 10
2 1502 10
3 1486 10
5 1476 10
7 1466 10
9 1434 10
10 1408 10
12 1379 9
17 1358 10
822 1339 9



1 1765 10
2 1563 10
3 1525 10
4 1460 10
14 1413 10
40 1390 10
120 1365 10
262 1358 10
440 1341 9
668 1330 9



1 1874 10
2 1547 10
3 1523 10
4 1469 10
6 1400 10
70 1374 10
111 1369 10
290 1354 10
757 1325 9



1 1812 10
2 1596 10
3 1514 10
4 1510 10
6 1475 10
7 1433 10
12 1410 9
55 1377 10
144 1365 10
520 1249 9



